objective value:                                12433
t_x_0                                               1 	(obj:59)
t_x_3                                               1 	(obj:63)
t_x_7                                               1 	(obj:42)
t_x_10                                              1 	(obj:2)
t_x_12                                              1 	(obj:12)
t_x_16                                              1 	(obj:13)
t_x_17                                              1 	(obj:15)
t_x_18                                              1 	(obj:42)
t_x_22                                              1 	(obj:5)
t_x_26                                              1 	(obj:29)
t_x_28                                              1 	(obj:78)
t_x_29                                              1 	(obj:31)
t_x_33                                              1 	(obj:5)
t_x_34                                              1 	(obj:9)
t_x_41                                              1 	(obj:0)
t_x_43                                              1 	(obj:18)
t_x_45                                              1 	(obj:29)
t_x_46                                              1 	(obj:25)
t_x_47                                              1 	(obj:14)
t_x_48                                              1 	(obj:18)
t_x_53                                              1 	(obj:21)
t_x_54                                              1 	(obj:32)
t_x_55                                              1 	(obj:62)
t_x_56                                              1 	(obj:16)
t_x_57                                              1 	(obj:13)
t_x_59                                              1 	(obj:27)
t_x_60                                              1 	(obj:53)
t_x_62                                              1 	(obj:0)
t_x_67                                              1 	(obj:7)
t_x_72                                              1 	(obj:21)
t_x_74                                              1 	(obj:65)
t_x_77                                              1 	(obj:14)
t_x_78                                              1 	(obj:17)
t_x_79                                              1 	(obj:30)
t_x_80                                              1 	(obj:28)
t_x_81                                              1 	(obj:41)
t_x_82                                              1 	(obj:39)
t_x_84                                              1 	(obj:24)
t_x_86                                              1 	(obj:3)
t_x_89                                              1 	(obj:39)
t_x_91                                              1 	(obj:11)
t_x_92                                              1 	(obj:11)
t_x_93                                              1 	(obj:20)
t_x_94                                              1 	(obj:39)
t_x_104                                             1 	(obj:38)
t_x_105                                             1 	(obj:0)
t_x_108                                             1 	(obj:15)
t_x_111                                             1 	(obj:7)
t_x_113                                             1 	(obj:20)
t_x_114                                             1 	(obj:73)
t_x_118                                             1 	(obj:22)
t_x_122                                             1 	(obj:13)
t_x_126                                             1 	(obj:30)
t_x_128                                             1 	(obj:22)
t_x_133                                             1 	(obj:18)
t_x_138                                             1 	(obj:23)
t_x_141                                             1 	(obj:5)
t_x_143                                             1 	(obj:27)
t_x_144                                             1 	(obj:52)
t_x_158                                             1 	(obj:1)
t_x_161                                             1 	(obj:30)
t_x_166                                             1 	(obj:24)
t_x_168                                             1 	(obj:16)
t_x_170                                             1 	(obj:37)
t_x_171                                             1 	(obj:43)
t_x_172                                             1 	(obj:22)
t_x_173                                             1 	(obj:6)
t_x_176                                             1 	(obj:9)
t_x_188                                             1 	(obj:31)
t_x_193                                             1 	(obj:6)
t_x_195                                             1 	(obj:12)
t_x_197                                             1 	(obj:2)
t_x_202                                             1 	(obj:7)
t_x_205                                             1 	(obj:6)
t_x_207                                             1 	(obj:54)
t_x_220                                             1 	(obj:5)
t_x_223                                             1 	(obj:14)
t_x_230                                             1 	(obj:1)
t_x_235                                             1 	(obj:26)
t_x_239                                             1 	(obj:33)
t_x_241                                             1 	(obj:33)
t_x_244                                             1 	(obj:23)
t_x_246                                             1 	(obj:4)
t_x_247                                             1 	(obj:36)
t_x_250                                             1 	(obj:51)
t_x_252                                             1 	(obj:0)
t_x_258                                             1 	(obj:13)
t_x_261                                             1 	(obj:52)
t_x_262                                             1 	(obj:7)
t_x_267                                             1 	(obj:14)
t_x_269                                             1 	(obj:18)
t_x_273                                             1 	(obj:22)
t_x_281                                             1 	(obj:10)
t_x_284                                             1 	(obj:21)
t_x_286                                             1 	(obj:2)
t_x_290                                             1 	(obj:21)
t_x_298                                             1 	(obj:18)
t_x_299                                             1 	(obj:22)
t_x_300                                             1 	(obj:36)
t_x_302                                             1 	(obj:11)
t_x_303                                             1 	(obj:1)
t_x_310                                             1 	(obj:16)
t_x_315                                             1 	(obj:18)
t_x_317                                             1 	(obj:11)
t_x_324                                             1 	(obj:5)
t_x_326                                             1 	(obj:36)
t_x_333                                             1 	(obj:24)
t_x_335                                             1 	(obj:22)
t_x_340                                             1 	(obj:17)
t_x_341                                             1 	(obj:16)
t_x_344                                             1 	(obj:1)
t_x_346                                             1 	(obj:33)
t_x_347                                             1 	(obj:6)
t_x_348                                             1 	(obj:11)
t_x_358                                             1 	(obj:42)
t_x_359                                             1 	(obj:35)
t_x_361                                             1 	(obj:6)
t_x_368                                             1 	(obj:10)
t_x_373                                             1 	(obj:13)
t_x_374                                             1 	(obj:5)
t_x_375                                             1 	(obj:14)
t_x_378                                             1 	(obj:0)
t_x_381                                             1 	(obj:1)
t_x_386                                             1 	(obj:8)
t_x_387                                             1 	(obj:11)
t_x_388                                             1 	(obj:13)
t_x_390                                             1 	(obj:29)
t_x_396                                             1 	(obj:13)
t_x_398                                             1 	(obj:8)
t_x_405                                             1 	(obj:13)
t_x_407                                             1 	(obj:52)
t_x_409                                             1 	(obj:6)
t_x_412                                             1 	(obj:28)
t_x_421                                             1 	(obj:5)
t_x_424                                             1 	(obj:15)
t_x_429                                             1 	(obj:21)
t_x_435                                             1 	(obj:21)
t_x_436                                             1 	(obj:16)
t_x_437                                             1 	(obj:49)
t_x_438                                             1 	(obj:9)
t_x_440                                             1 	(obj:45)
t_x_448                                             1 	(obj:8)
t_x_449                                             1 	(obj:31)
t_x_450                                             1 	(obj:40)
t_x_453                                             1 	(obj:21)
t_x_455                                             1 	(obj:13)
t_x_462                                             1 	(obj:10)
t_x_463                                             1 	(obj:14)
t_x_464                                             1 	(obj:20)
t_x_468                                             1 	(obj:14)
t_x_470                                             1 	(obj:6)
t_x_474                                             1 	(obj:29)
t_x_478                                             1 	(obj:14)
t_x_483                                             1 	(obj:20)
t_x_484                                             1 	(obj:81)
t_x_486                                             1 	(obj:5)
t_x_488                                             1 	(obj:11)
t_x_490                                             1 	(obj:26)
t_x_491                                             1 	(obj:19)
t_x_492                                             1 	(obj:40)
t_x_493                                             1 	(obj:21)
t_x_496                                             1 	(obj:28)
t_x_499                                             1 	(obj:20)
t_x_500                                             1 	(obj:2)
t_x_502                                             1 	(obj:30)
t_x_503                                             1 	(obj:3)
t_x_504                                             1 	(obj:37)
t_x_510                                             1 	(obj:16)
t_x_511                                             1 	(obj:24)
t_x_514                                             1 	(obj:23)
t_x_515                                             1 	(obj:2)
t_x_516                                             1 	(obj:30)
t_x_518                                             1 	(obj:15)
t_x_521                                             1 	(obj:21)
t_x_523                                             1 	(obj:6)
t_x_525                                             1 	(obj:29)
t_x_526                                             1 	(obj:0)
t_x_527                                             1 	(obj:21)
t_x_528                                             1 	(obj:7)
t_x_531                                             1 	(obj:26)
t_x_532                                             1 	(obj:33)
t_x_534                                             1 	(obj:47)
t_x_537                                             1 	(obj:0)
t_x_544                                             1 	(obj:49)
t_x_546                                             1 	(obj:7)
t_x_552                                             1 	(obj:5)
t_x_557                                             1 	(obj:12)
t_x_567                                             1 	(obj:52)
t_x_568                                             1 	(obj:5)
t_x_569                                             1 	(obj:46)
t_x_575                                             1 	(obj:36)
t_x_576                                             1 	(obj:34)
t_x_577                                             1 	(obj:51)
t_x_579                                             1 	(obj:2)
t_x_584                                             1 	(obj:77)
t_x_588                                             1 	(obj:26)
t_x_592                                             1 	(obj:24)
t_x_595                                             1 	(obj:29)
t_x_601                                             1 	(obj:44)
t_x_607                                             1 	(obj:28)
t_x_622                                             1 	(obj:23)
t_x_624                                             1 	(obj:13)
t_x_627                                             1 	(obj:2)
t_x_628                                             1 	(obj:0)
t_x_629                                             1 	(obj:37)
t_x_633                                             1 	(obj:20)
t_x_634                                             1 	(obj:8)
t_x_639                                             1 	(obj:41)
t_x_643                                             1 	(obj:17)
t_x_644                                             1 	(obj:22)
t_x_646                                             1 	(obj:18)
t_x_647                                             1 	(obj:15)
t_x_649                                             1 	(obj:45)
t_x_650                                             1 	(obj:10)
t_x_651                                             1 	(obj:46)
t_x_655                                             1 	(obj:1)
t_x_656                                             1 	(obj:36)
t_x_657                                             1 	(obj:25)
t_x_660                                             1 	(obj:7)
t_x_666                                             1 	(obj:2)
t_x_668                                             1 	(obj:26)
t_x_669                                             1 	(obj:3)
t_x_675                                             1 	(obj:26)
t_x_677                                             1 	(obj:10)
t_x_682                                             1 	(obj:47)
t_x_683                                             1 	(obj:3)
t_x_688                                             1 	(obj:34)
t_x_690                                             1 	(obj:13)
t_x_694                                             1 	(obj:41)
t_x_707                                             1 	(obj:10)
t_x_708                                             1 	(obj:24)
t_x_710                                             1 	(obj:58)
t_x_712                                             1 	(obj:51)
t_x_719                                             1 	(obj:0)
t_x_722                                             1 	(obj:46)
t_x_729                                             1 	(obj:18)
t_x_733                                             1 	(obj:39)
t_x_736                                             1 	(obj:8)
t_x_737                                             1 	(obj:0)
t_x_740                                             1 	(obj:57)
t_x_741                                             1 	(obj:6)
t_x_742                                             1 	(obj:31)
t_x_746                                             1 	(obj:9)
t_x_747                                             1 	(obj:11)
t_x_749                                             1 	(obj:21)
t_x_754                                             1 	(obj:10)
t_x_756                                             1 	(obj:13)
t_x_757                                             1 	(obj:14)
t_x_758                                             1 	(obj:0)
t_x_760                                             1 	(obj:8)
t_x_766                                             1 	(obj:46)
t_x_767                                             1 	(obj:38)
t_x_769                                             1 	(obj:30)
t_x_770                                             1 	(obj:18)
t_x_771                                             1 	(obj:43)
t_x_772                                             1 	(obj:15)
t_x_777                                             1 	(obj:16)
t_x_778                                             1 	(obj:26)
t_x_788                                             1 	(obj:40)
t_x_791                                             1 	(obj:1)
t_x_803                                             1 	(obj:12)
t_x_810                                             1 	(obj:0)
t_x_815                                             1 	(obj:0)
t_x_816                                             1 	(obj:50)
t_x_817                                             1 	(obj:12)
t_x_824                                             1 	(obj:15)
t_x_825                                             1 	(obj:5)
t_x_828                                             1 	(obj:8)
t_x_835                                             1 	(obj:14)
t_x_837                                             1 	(obj:58)
t_x_841                                             1 	(obj:19)
t_x_843                                             1 	(obj:0)
t_x_844                                             1 	(obj:11)
t_x_849                                             1 	(obj:10)
t_x_850                                             1 	(obj:42)
t_x_852                                             1 	(obj:9)
t_x_853                                             1 	(obj:11)
t_x_855                                             1 	(obj:11)
t_x_856                                             1 	(obj:4)
t_x_857                                             1 	(obj:34)
t_x_858                                             1 	(obj:35)
t_x_864                                             1 	(obj:33)
t_x_867                                             1 	(obj:37)
t_x_873                                             1 	(obj:15)
t_x_877                                             1 	(obj:3)
t_x_882                                             1 	(obj:42)
t_x_884                                             1 	(obj:6)
t_x_890                                             1 	(obj:9)
t_x_893                                             1 	(obj:21)
t_x_900                                             1 	(obj:3)
t_x_901                                             1 	(obj:13)
t_x_902                                             1 	(obj:56)
t_x_910                                             1 	(obj:15)
t_x_912                                             1 	(obj:25)
t_x_916                                             1 	(obj:26)
t_x_918                                             1 	(obj:0)
t_x_926                                             1 	(obj:9)
t_x_927                                             1 	(obj:2)
t_x_930                                             1 	(obj:27)
t_x_933                                             1 	(obj:4)
t_x_936                                             1 	(obj:18)
t_x_939                                             1 	(obj:4)
t_x_946                                             1 	(obj:13)
t_x_956                                             1 	(obj:2)
t_x_958                                             1 	(obj:8)
t_x_960                                             1 	(obj:6)
t_x_962                                             1 	(obj:14)
t_x_971                                             1 	(obj:13)
t_x_977                                             1 	(obj:2)
t_x_979                                             1 	(obj:6)
t_x_980                                             1 	(obj:22)
t_x_982                                             1 	(obj:24)
t_x_990                                             1 	(obj:46)
t_x_995                                             1 	(obj:15)
t_x_996                                             1 	(obj:21)
t_x_997                                             1 	(obj:22)
t_x_999                                             1 	(obj:12)
t_x_1003                                            1 	(obj:27)
t_x_1012                                            1 	(obj:2)
t_x_1016                                            1 	(obj:17)
t_x_1020                                            1 	(obj:3)
t_x_1021                                            1 	(obj:7)
t_x_1023                                            1 	(obj:0)
t_x_1026                                            1 	(obj:20)
t_x_1029                                            1 	(obj:14)
t_x_1031                                            1 	(obj:16)
t_x_1036                                            1 	(obj:23)
t_x_1038                                            1 	(obj:4)
t_x_1042                                            1 	(obj:22)
t_x_1045                                            1 	(obj:16)
t_x_1046                                            1 	(obj:45)
t_x_1048                                            1 	(obj:7)
t_x_1051                                            1 	(obj:1)
t_x_1060                                            1 	(obj:3)
t_x_1062                                            1 	(obj:19)
t_x_1065                                            1 	(obj:47)
t_x_1067                                            1 	(obj:9)
t_x_1072                                            1 	(obj:12)
t_x_1075                                            1 	(obj:15)
t_x_1077                                            1 	(obj:4)
t_x_1080                                            1 	(obj:6)
t_x_1083                                            1 	(obj:7)
t_x_1086                                            1 	(obj:5)
t_x_1087                                            1 	(obj:14)
t_x_1095                                            1 	(obj:2)
t_x_1098                                            1 	(obj:38)
t_x_1099                                            1 	(obj:8)
t_x_1102                                            1 	(obj:17)
t_x_1107                                            1 	(obj:23)
t_x_1111                                            1 	(obj:18)
t_x_1112                                            1 	(obj:31)
t_x_1113                                            1 	(obj:15)
t_x_1115                                            1 	(obj:16)
t_x_1117                                            1 	(obj:12)
t_x_1118                                            1 	(obj:0)
t_x_1131                                            1 	(obj:2)
t_x_1132                                            1 	(obj:21)
t_x_1135                                            1 	(obj:5)
t_x_1139                                            1 	(obj:14)
t_x_1140                                            1 	(obj:3)
t_x_1142                                            1 	(obj:22)
t_x_1146                                            1 	(obj:55)
t_x_1154                                            1 	(obj:57)
t_x_1155                                            1 	(obj:25)
t_x_1160                                            1 	(obj:38)
t_x_1162                                            1 	(obj:2)
t_x_1168                                            1 	(obj:23)
t_x_1170                                            1 	(obj:15)
t_x_1171                                            1 	(obj:41)
t_x_1176                                            1 	(obj:20)
t_x_1177                                            1 	(obj:15)
t_x_1178                                            1 	(obj:7)
t_x_1183                                            1 	(obj:22)
t_x_1191                                            1 	(obj:5)
t_x_1195                                            1 	(obj:8)
t_x_1198                                            1 	(obj:12)
t_x_1199                                            1 	(obj:26)
t_x_1200                                            1 	(obj:14)
t_x_1201                                            1 	(obj:34)
t_x_1206                                            1 	(obj:11)
t_x_1207                                            1 	(obj:4)
t_x_1208                                            1 	(obj:9)
t_x_1211                                            1 	(obj:35)
t_x_1213                                            1 	(obj:9)
t_x_1214                                            1 	(obj:13)
t_x_1215                                            1 	(obj:19)
t_x_1221                                            1 	(obj:0)
t_x_1223                                            1 	(obj:8)
t_x_1226                                            1 	(obj:19)
t_x_1229                                            1 	(obj:24)
t_x_1231                                            1 	(obj:2)
t_x_1235                                            1 	(obj:33)
t_x_1238                                            1 	(obj:6)
t_x_1239                                            1 	(obj:0)
t_x_1241                                            1 	(obj:30)
t_x_1244                                            1 	(obj:7)
t_x_1246                                            1 	(obj:22)
t_x_1249                                            1 	(obj:12)
t_x_1257                                            1 	(obj:34)
t_x_1258                                            1 	(obj:34)
t_x_1259                                            1 	(obj:10)
t_x_1264                                            1 	(obj:25)
t_x_1267                                            1 	(obj:8)
t_x_1268                                            1 	(obj:1)
t_x_1272                                            1 	(obj:37)
t_x_1273                                            1 	(obj:19)
t_x_1278                                            1 	(obj:25)
t_x_1282                                            1 	(obj:11)
t_x_1286                                            1 	(obj:23)
t_x_1288                                            1 	(obj:19)
t_x_1289                                            1 	(obj:24)
t_x_1293                                            1 	(obj:8)
t_x_1295                                            1 	(obj:24)
t_x_1297                                            1 	(obj:50)
t_x_1303                                            1 	(obj:6)
t_x_1304                                            1 	(obj:68)
t_x_1307                                            1 	(obj:8)
t_x_1310                                            1 	(obj:43)
t_x_1313                                            1 	(obj:32)
t_x_1314                                            1 	(obj:29)
t_x_1315                                            1 	(obj:9)
t_x_1319                                            1 	(obj:4)
t_x_1322                                            1 	(obj:21)
t_x_1323                                            1 	(obj:28)
t_x_1327                                            1 	(obj:10)
t_x_1331                                            1 	(obj:19)
t_x_1333                                            1 	(obj:20)
t_x_1335                                            1 	(obj:12)
t_x_1336                                            1 	(obj:6)
t_x_1345                                            1 	(obj:14)
t_x_1346                                            1 	(obj:4)
t_x_1349                                            1 	(obj:13)
t_x_1350                                            1 	(obj:22)
t_x_1352                                            1 	(obj:33)
t_x_1353                                            1 	(obj:32)
t_x_1362                                            1 	(obj:24)
t_x_1365                                            1 	(obj:6)
t_x_1366                                            1 	(obj:47)
t_x_1371                                            1 	(obj:12)
t_x_1372                                            1 	(obj:7)
t_x_1373                                            1 	(obj:24)
t_x_1376                                            1 	(obj:8)
t_x_1382                                            1 	(obj:17)
t_x_1386                                            1 	(obj:75)
t_x_1395                                            1 	(obj:8)
t_x_1396                                            1 	(obj:5)
t_x_1397                                            1 	(obj:53)
t_x_1398                                            1 	(obj:10)
t_x_1408                                            1 	(obj:9)
t_x_1410                                            1 	(obj:34)
t_x_1417                                            1 	(obj:7)
t_x_1418                                            1 	(obj:5)
t_x_1420                                            1 	(obj:0)
t_x_1421                                            1 	(obj:29)
t_x_1422                                            1 	(obj:29)
t_x_1424                                            1 	(obj:1)
t_x_1426                                            1 	(obj:8)
t_x_1430                                            1 	(obj:5)
t_x_1434                                            1 	(obj:17)
t_x_1437                                            1 	(obj:27)
t_x_1439                                            1 	(obj:0)
t_x_1440                                            1 	(obj:3)
t_x_1447                                            1 	(obj:14)
t_x_1448                                            1 	(obj:11)
t_x_1451                                            1 	(obj:5)
t_x_1455                                            1 	(obj:37)
t_x_1457                                            1 	(obj:40)
t_x_1465                                            1 	(obj:11)
t_x_1466                                            1 	(obj:41)
t_x_1474                                            1 	(obj:5)
t_x_1477                                            1 	(obj:22)
t_x_1480                                            1 	(obj:9)
t_x_1502                                            1 	(obj:4)
t_x_1504                                            1 	(obj:15)
t_x_1506                                            1 	(obj:0)
t_x_1508                                            1 	(obj:41)
t_x_1516                                            1 	(obj:27)
t_x_1517                                            1 	(obj:20)
t_x_1521                                            1 	(obj:2)
t_x_1529                                            1 	(obj:31)
t_x_1534                                            1 	(obj:61)
t_x_1537                                            1 	(obj:27)
t_x_1539                                            1 	(obj:31)
t_x_1543                                            1 	(obj:37)
t_x_1545                                            1 	(obj:10)
t_x_1547                                            1 	(obj:9)
t_x_1550                                            1 	(obj:14)
t_x_1551                                            1 	(obj:29)
t_x_1554                                            1 	(obj:8)
t_x_1556                                            1 	(obj:27)
t_x_1560                                            1 	(obj:25)
t_x_1561                                            1 	(obj:27)
t_x_1563                                            1 	(obj:17)
t_x_1569                                            1 	(obj:11)
t_x_1572                                            1 	(obj:24)
t_x_1581                                            1 	(obj:33)
t_x_1583                                            1 	(obj:11)
t_x_1586                                            1 	(obj:23)
t_x_1592                                            1 	(obj:9)
t_x_1594                                            1 	(obj:23)
t_x_1596                                            1 	(obj:69)
t_x_1597                                            1 	(obj:48)
t_x_1606                                            1 	(obj:18)
t_x_1611                                            1 	(obj:13)
t_x_1615                                            1 	(obj:5)
t_x_1616                                            1 	(obj:6)
t_x_1618                                            1 	(obj:22)
t_x_1621                                            1 	(obj:2)
t_x_1623                                            1 	(obj:16)
t_x_1626                                            1 	(obj:22)
t_x_1628                                            1 	(obj:16)
t_x_1631                                            1 	(obj:8)
t_x_1637                                            1 	(obj:36)
t_x_1652                                            1 	(obj:20)
t_x_1656                                            1 	(obj:31)
t_x_1657                                            1 	(obj:35)
t_x_1673                                            1 	(obj:43)
t_x_1674                                            1 	(obj:9)
t_x_1681                                            1 	(obj:19)
t_x_1684                                            1 	(obj:12)
t_x_1691                                            1 	(obj:18)
t_x_1693                                            1 	(obj:25)
t_x_1695                                            1 	(obj:20)
t_x_1696                                            1 	(obj:17)
t_x_1700                                            1 	(obj:29)
t_x_1702                                            1 	(obj:55)
t_x_1704                                            1 	(obj:55)
t_x_1706                                            1 	(obj:26)
t_x_1707                                            1 	(obj:25)
t_x_1709                                            1 	(obj:34)
t_x_1711                                            1 	(obj:19)
t_x_1714                                            1 	(obj:9)
t_x_1716                                            1 	(obj:2)
t_x_1717                                            1 	(obj:51)
t_x_1718                                            1 	(obj:18)
t_x_1719                                            1 	(obj:5)
t_x_1725                                            1 	(obj:39)
t_x_1726                                            1 	(obj:2)
t_x_1742                                            1 	(obj:6)
t_x_1743                                            1 	(obj:52)
t_x_1744                                            1 	(obj:8)
t_x_1746                                            1 	(obj:35)
t_x_1749                                            1 	(obj:29)
t_x_1754                                            1 	(obj:7)
t_x_1755                                            1 	(obj:3)
t_x_1757                                            1 	(obj:6)
t_x_1759                                            1 	(obj:57)
t_x_1760                                            1 	(obj:34)
t_x_1762                                            1 	(obj:17)
t_x_1763                                            1 	(obj:18)
t_x_1771                                            1 	(obj:20)
t_x_1780                                            1 	(obj:35)
t_x_1782                                            1 	(obj:6)
t_x_1783                                            1 	(obj:25)
t_x_1786                                            1 	(obj:6)
t_x_1788                                            1 	(obj:27)
t_x_1793                                            1 	(obj:6)
t_x_1798                                            1 	(obj:6)
t_x_1802                                            1 	(obj:35)
t_x_1808                                            1 	(obj:0)
t_x_1809                                            1 	(obj:6)
t_x_1810                                            1 	(obj:11)
t_x_1812                                            1 	(obj:32)
t_x_1813                                            1 	(obj:2)
t_x_1824                                            1 	(obj:25)
t_x_1826                                            1 	(obj:25)
t_x_1831                                            1 	(obj:27)
t_x_1834                                            1 	(obj:22)
t_x_1835                                            1 	(obj:18)
t_x_1840                                            1 	(obj:2)
t_x_1841                                            1 	(obj:8)
t_x_1842                                            1 	(obj:1)
t_x_1843                                            1 	(obj:62)
t_x_1845                                            1 	(obj:62)
t_x_1850                                            1 	(obj:17)
t_x_1851                                            1 	(obj:7)
t_x_1856                                            1 	(obj:0)
t_x_1857                                            1 	(obj:31)
t_x_1865                                            1 	(obj:0)
t_x_1869                                            1 	(obj:1)
t_x_1876                                            1 	(obj:10)
t_x_1885                                            1 	(obj:22)
t_x_1888                                            1 	(obj:21)
t_x_1893                                            1 	(obj:21)
t_x_1901                                            1 	(obj:13)
t_x_1906                                            1 	(obj:37)
t_x_1909                                            1 	(obj:19)
t_x_1910                                            1 	(obj:7)
t_x_1916                                            1 	(obj:22)
t_x_1922                                            1 	(obj:30)
t_x_1923                                            1 	(obj:30)
t_x_1929                                            1 	(obj:55)
t_x_1930                                            1 	(obj:3)
t_x_1932                                            1 	(obj:8)
t_x_1935                                            1 	(obj:25)
t_x_1939                                            1 	(obj:7)
t_x_1945                                            1 	(obj:39)
t_x_1947                                            1 	(obj:6)
t_x_1949                                            1 	(obj:27)
t_x_1951                                            1 	(obj:17)
t_x_1956                                            1 	(obj:9)
t_x_1957                                            1 	(obj:40)
t_x_1958                                            1 	(obj:4)
t_x_1959                                            1 	(obj:34)
t_x_1967                                            1 	(obj:37)
t_x_1969                                            1 	(obj:12)
t_x_1973                                            1 	(obj:36)
t_x_1976                                            1 	(obj:17)
t_x_1978                                            1 	(obj:1)
t_x_1980                                            1 	(obj:3)
t_x_1982                                            1 	(obj:21)
t_x_1984                                            1 	(obj:43)
t_x_1985                                            1 	(obj:6)
t_x_1995                                            1 	(obj:4)
t_x_1996                                            1 	(obj:25)
t_x_1999                                            1 	(obj:33)
